100
128
8
4
19
12
4
8
43
40
31
9
31
8
7
9
4
1
30
52
57
37
5
15
40
3
1
3
48
12
25
21
14
31
63
36
48
19
56
47
22
49
31
1
60
41
1
62
1
33
39
36
53
51
52
31
63
28
39
43
64
28
45
1
18
36
51
1
44
47
39
1
41
50
28
34
59
2
27
64
3
10
31
40
9
40
47
59
4
7
31
37
33
7
3
55
47
5
39
30
64
5